Version identifier: 20.1.0.0 | 2020-11-10 | 9bedb6d68
Tried aggregator 2 times.
MIP Presolve eliminated 676 rows and 369 columns.
MIP Presolve modified 1316 coefficients.
Aggregator did 84 substitutions.
Reduced MIP has 521 rows, 454 columns, and 1652 nonzeros.
Reduced MIP has 122 binaries, 332 generals, 0 SOSs, and 0 indicators.
Presolve time = 0.01 sec. (2.70 ticks)
Found incumbent of value 793.000000 after 0.01 sec. (4.32 ticks)
Probing fixed 14 vars, tightened 132 bounds.
Probing time = 0.00 sec. (0.35 ticks)
Tried aggregator 2 times.
Detecting symmetries...
MIP Presolve eliminated 203 rows and 25 columns.
MIP Presolve modified 47 coefficients.
Aggregator did 9 substitutions.
Reduced MIP has 309 rows, 420 columns, and 1002 nonzeros.
Reduced MIP has 160 binaries, 260 generals, 0 SOSs, and 0 indicators.
Presolve time = 0.00 sec. (1.40 ticks)
Probing time = 0.00 sec. (0.09 ticks)
Clique table members: 4.
MIP emphasis: balance optimality and feasibility.
MIP search method: dynamic search.
Parallel mode: deterministic, using up to 24 threads.
Root relaxation solution time = 0.00 sec. (0.91 ticks)

        Nodes                                         Cuts/
   Node  Left     Objective  IInf  Best Integer    Best Bound    ItCnt     Gap

*     0+    0                          793.0000        0.0000           100.00%
*     0+    0                           35.0000        0.0000           100.00%
      0     0        0.2000    23       35.0000        0.2000      122   99.43%
*     0+    0                           19.0000        0.2000            98.95%
      0     0        2.3333    35       19.0000      Cuts: 48      223   87.72%
      0     0        3.0000    85       19.0000      Cuts: 42      284   84.21%
      0     0        3.2083   151       19.0000      Cuts: 46      373   83.11%
      0     0        4.0000   125       19.0000      Cuts: 87      442   78.95%
      0     0        4.0000   137       19.0000      Cuts: 39      473   78.95%
      0     0        4.1429    46       19.0000   ZeroHalf: 5      495   78.20%
      0     0        4.4167   101       19.0000      Cuts: 46      567   76.75%
      0     0        4.6607   139       19.0000      Cuts: 64      631   75.47%
      0     0        4.6607   145       19.0000      Cuts: 44      661   75.47%
*     0+    0                           18.0000        4.6607            74.11%
*     0+    0                           14.0000        4.6607            66.71%
      0     0        cutoff             14.0000       14.0000      661    0.00%
Elapsed time = 0.45 sec. (45.68 ticks, tree = 0.01 MB, solutions = 5)

Implied bound cuts applied:  13
Flow cuts applied:  2
Mixed integer rounding cuts applied:  14
Zero-half cuts applied:  32
Lift and project cuts applied:  1
Gomory fractional cuts applied:  4

Root node processing (before b&c):
  Real time             =    0.45 sec. (45.73 ticks)
Parallel b&c, 24 threads:
  Real time             =    0.00 sec. (0.00 ticks)
  Sync time (average)   =    0.00 sec.
  Wait time (average)   =    0.00 sec.
                          ------------
Total (root+branch&cut) =    0.45 sec. (45.73 ticks)

Solution status = Optimal
Solution LB = 14
Solution UB = 14
Runtime = 0.459607 seconds
	Command being timed: "/home/min/git_repos/CS598MEBProject/CNT-ILP/build/cnt -s 2 ./output/k6_n15/simC_c1_k6_n15_u3_s2_del04.input-right.cnp"
	User time (seconds): 7.87
	System time (seconds): 0.02
	Percent of CPU this job got: 1669%
	Elapsed (wall clock) time (h:mm:ss or m:ss): 0:00.47
	Average shared text size (kbytes): 0
	Average unshared data size (kbytes): 0
	Average stack size (kbytes): 0
	Average total size (kbytes): 0
	Maximum resident set size (kbytes): 46684
	Average resident set size (kbytes): 0
	Major (requiring I/O) page faults: 0
	Minor (reclaiming a frame) page faults: 8746
	Voluntary context switches: 1527
	Involuntary context switches: 1312
	Swaps: 0
	File system inputs: 0
	File system outputs: 16
	Socket messages sent: 0
	Socket messages received: 0
	Signals delivered: 0
	Page size (bytes): 4096
	Exit status: 0
